param set_len = 24;
param target = 188688;
param values := [0] 24388 [1] 12553 [2] 23186 [3] 2827 [4] 14887 [5] 28335 [6] 24240 [7] 24439 [8] 17175 [9] 4714 [10] 21587 [11] 29607 [12] 23648 [13] 3685 [14] 18278 [15] 15419 [16] 2325 [17] 30908 [18] 1950 [19] 28590 [20] 26553 [21] 15130 [22] 22029 [23] 5891 ;
